RT is False
Default write of storage_offers_DA.csv just to have a file (but constraint should be inactive)
Reading model...
...model read.
creating competitive generators file...
...competitive generators recorded.
Loading data...
.. day-ahead data with real-time VRE data read.
Compiling instance...
...instance created.
Creating Offer Mitigation (model will solve as dispatch if TRUE)...
Solving...

Welcome to IBM(R) ILOG(R) CPLEX(R) Interactive Optimizer 12.8.0.0
  with Simplex, Mixed Integer & Barrier Optimizers
5725-A06 5725-A29 5724-Y48 5724-Y49 5724-Y54 5724-Y55 5655-Y21
Copyright IBM Corp. 1988, 2017.  All Rights Reserved.

Type 'help' for a list of available commands.
Type 'help' followed by a command name for more
information on commands.

CPLEX> Logfile 'cplex.log' closed.
Logfile 'C:\Users\llavi\Desktop\test919\logs\tmpokmy5li2.cplex.log' open.
CPLEX> New value for parallel optimization mode: -1
CPLEX> New value for mixed integer optimality gap tolerance: 0.01
CPLEX> New value for integrality tolerance: 1e-09
CPLEX> New value for feasibility tolerance: 0.01
CPLEX> New value for deterministic time limit in ticks: 75000
CPLEX> Problem 'C:\Users\llavi\Desktop\test919\logs\tmpc1evlxna.pyomo.lp' read.
Read time = 0.14 sec. (3.03 ticks)
CPLEX> Problem name         : C:\Users\llavi\Desktop\test919\logs\tmpc1evlxna.pyomo.lp
Objective sense      : Minimize
Variables            :   26465  [Nneg: 1,  Box: 22000,  Free: 4464]
Objective nonzeros   :    2496
Linear constraints   :   27515  [Less: 14006,  Greater: 4416,  Equal: 9093]
  Nonzeros           :   89171
  RHS nonzeros       :   12271

Variables            : Min LB: -5000.000        Max UB: 1000000.       
Objective nonzeros   : Min   : 15.73158         Max   : 124.0997       
Linear constraints   :
  Nonzeros           : Min   : 0.8500000        Max   : 3000.000       
  RHS nonzeros       : Min   : 0.4000000        Max   : 5000.000       
CPLEX> CPXPARAM_Simplex_Tolerances_Feasibility          0.01
CPXPARAM_Parallel                                -1
CPXPARAM_DetTimeLimit                            75000
CPXPARAM_MIP_Tolerances_MIPGap                   0.01
CPXPARAM_MIP_Tolerances_Integrality              1.0000000000000001e-09
Parallel mode: opportunistic, using up to 4 threads for concurrent optimization.
Tried aggregator 1 time.
LP Presolve eliminated 21401 rows and 15895 columns.
Aggregator did 722 substitutions.
Reduced LP has 5392 rows, 9848 columns, and 31764 nonzeros.
Presolve time = 0.05 sec. (22.46 ticks)

Iteration log . . .
Iteration:     1   Dual objective     =             0.000000
Perturbation started.
Iteration:   101   Dual objective     =             0.000000
Iteration:   359   Dual objective     =             1.352479
Iteration:   630   Dual objective     =             1.976487
Iteration:   948   Dual objective     =             2.152406
Iteration:  1143   Dual objective     =             2.273660
Iteration:  1507   Dual objective     =             2.333300
Iteration:  1809   Dual objective     =             2.365272
Iteration:  2098   Dual objective     =          6566.488736
Iteration:  2391   Dual objective     =         59267.445200
Iteration:  2699   Dual objective     =         83742.529226
Iteration:  3039   Dual objective     =        114640.225478
Iteration:  3382   Dual objective     =        127838.502870
Iteration:  3715   Dual objective     =        158856.337365
Iteration:  4097   Dual objective     =        202883.749032
Iteration:  4591   Dual objective     =        207198.787359
Removing perturbation.

Dual simplex solved model.


Dual simplex - Optimal:  Objective =  2.0719632640e+05
Solution time =    0.20 sec.  Iterations = 4591 (0)
Deterministic time = 98.56 ticks  (485.53 ticks/sec)

CPLEX> Solution written to file 'C:\Users\llavi\Desktop\test919\logs\tmpvniq3dqs.cplex.sol'.
CPLEX> Exporting results... 
...storage offer mitigation file created
Converting model to MPEC...
...converted
NOTE: initial MIP solve with only storage competitive to get feasible solution
Solving...

Welcome to IBM(R) ILOG(R) CPLEX(R) Interactive Optimizer 12.8.0.0
  with Simplex, Mixed Integer & Barrier Optimizers
5725-A06 5725-A29 5724-Y48 5724-Y49 5724-Y54 5724-Y55 5655-Y21
Copyright IBM Corp. 1988, 2017.  All Rights Reserved.

Type 'help' for a list of available commands.
Type 'help' followed by a command name for more
information on commands.

CPLEX> Logfile 'cplex.log' closed.
Logfile 'C:\Users\llavi\Desktop\test919\logs\tmpcgl2684m.cplex.log' open.
CPLEX> New value for parallel optimization mode: -1
CPLEX> New value for mixed integer optimality gap tolerance: 0.01
CPLEX> New value for integrality tolerance: 1e-09
CPLEX> New value for feasibility tolerance: 0.01
CPLEX> New value for deterministic time limit in ticks: 75000
CPLEX> Problem 'C:\Users\llavi\Desktop\test919\logs\tmprb2dzyic.pyomo.lp' read.
Read time = 0.25 sec. (13.96 ticks)
CPLEX> Problem name         : C:\Users\llavi\Desktop\test919\logs\tmprb2dzyic.pyomo.lp
Objective sense      : Maximize
Variables            :   53805  [Nneg: 1,  Box: 22000,  Free: 4464,
                                 Binary: 27340]
Objective nonzeros   :    9078
Linear constraints   :  123205  [Less: 41346,  Greater: 59096,  Equal: 22763]
  Nonzeros           :  291705
  RHS nonzeros       :   67431

Variables            : Min LB: -5000.000        Max UB: 1000000.       
Objective nonzeros   : Min   : 0.4000000        Max   : 2500.000       
Linear constraints   :
  Nonzeros           : Min   : 0.4000000        Max   : 1000000.       
  RHS nonzeros       : Min   : 0.4000000        Max   : 1000000.       
CPLEX> CPXPARAM_Simplex_Tolerances_Feasibility          0.01
CPXPARAM_Parallel                                -1
CPXPARAM_DetTimeLimit                            75000
CPXPARAM_MIP_Tolerances_MIPGap                   0.01
CPXPARAM_MIP_Tolerances_Integrality              1.0000000000000001e-09
Tried aggregator 3 times.
MIP Presolve eliminated 88653 rows and 19001 columns.
MIP Presolve added 3354 rows and 0 columns.
MIP Presolve modified 23895 coefficients.
Aggregator did 12963 substitutions.
Reduced MIP has 24943 rows, 21285 columns, and 71098 nonzeros.
Reduced MIP has 8424 binaries, 0 generals, 0 SOSs, and 0 indicators.
Presolve time = 0.30 sec. (165.21 ticks)
Probing fixed 415 vars, tightened 2920 bounds.
Probing time = 3.06 sec. (892.82 ticks)
Tried aggregator 2 times.
MIP Presolve eliminated 939 rows and 832 columns.
MIP Presolve modified 2234 coefficients.
Aggregator did 45 substitutions.
Reduced MIP has 23959 rows, 20408 columns, and 68253 nonzeros.
Reduced MIP has 8008 binaries, 0 generals, 0 SOSs, and 0 indicators.
Presolve time = 0.11 sec. (54.27 ticks)
Probing time = 0.05 sec. (15.60 ticks)
Clique table members: 6568.
MIP emphasis: balance optimality and feasibility.
MIP search method: dynamic search.
Parallel mode: opportunistic, using up to 4 threads.
Root relaxation solution time = 0.58 sec. (502.90 ticks)

        Nodes                                         Cuts/
   Node  Left     Objective  IInf  Best Integer    Best Bound    ItCnt     Gap

      0     0        0.0000   694                      0.0000     3835         
*     0+    0                            0.0000        0.0000             0.00%
      0     0        cutoff              0.0000        0.0000     3835    0.00%
Elapsed time = 5.30 sec. (2008.91 ticks, tree = 0.01 MB, solutions = 1)

Root node processing (before b&c):
  Real time             =    5.30 sec. (2011.18 ticks)
Parallel b&c, 4 threads:
  Real time             =    0.00 sec. (0.00 ticks)
  Sync time (average)   =    0.00 sec.
  Wait time (average)   =    0.00 sec.
                          ------------
Total (root+branch&cut) =    5.30 sec. (2011.18 ticks)

Solution pool: 1 solution saved.

MIP - Integer optimal solution:  Objective =  5.2605173551e-09
Solution time =    5.30 sec.  Iterations = 3835  Nodes = 0
Deterministic time = 2011.34 ticks  (379.71 ticks/sec)

CPLEX> Incumbent solution written to file 'C:\Users\llavi\Desktop\test919\logs\tmp_tgnfngd.cplex.sol'.
CPLEX> NOTE: no warmstart specified for MIP iteration, default behavior is true
NOTE: resolving with all competitive generators using storage-only solution to warmstart
Solving...

Welcome to IBM(R) ILOG(R) CPLEX(R) Interactive Optimizer 12.8.0.0
  with Simplex, Mixed Integer & Barrier Optimizers
5725-A06 5725-A29 5724-Y48 5724-Y49 5724-Y54 5724-Y55 5655-Y21
Copyright IBM Corp. 1988, 2017.  All Rights Reserved.

Type 'help' for a list of available commands.
Type 'help' followed by a command name for more
information on commands.

CPLEX> Logfile 'cplex.log' closed.
Logfile 'C:\Users\llavi\Desktop\test919\logs\tmp9y2u2afy.cplex.log' open.
CPLEX> New value for parallel optimization mode: -1
CPLEX> New value for mixed integer optimality gap tolerance: 0.01
CPLEX> New value for integrality tolerance: 1e-09
CPLEX> New value for feasibility tolerance: 0.01
CPLEX> New value for deterministic time limit in ticks: 75000
CPLEX> Problem 'C:\Users\llavi\Desktop\test919\logs\tmpma5so5ka.pyomo.lp' read.
Read time = 0.26 sec. (13.98 ticks)
CPLEX> MIP start file 'C:\Users\llavi\Desktop\test919\logs\tmpk4spk72u.cplex.mst' read.
CPLEX> Problem name         : C:\Users\llavi\Desktop\test919\logs\tmpma5so5ka.pyomo.lp
Objective sense      : Maximize
Variables            :   54525  [Nneg: 1,  Box: 22720,  Free: 4464,
                                 Binary: 27340]
Objective nonzeros   :    9774
Linear constraints   :  123205  [Less: 41346,  Greater: 59096,  Equal: 22763]
  Nonzeros           :  291705
  RHS nonzeros       :   67431

Variables            : Min LB: -5000.000        Max UB: 1000000.       
Objective nonzeros   : Min   : 0.4000000        Max   : 2500.000       
Linear constraints   :
  Nonzeros           : Min   : 0.4000000        Max   : 1000000.       
  RHS nonzeros       : Min   : 0.4000000        Max   : 1000000.       
CPLEX> CPXPARAM_Simplex_Tolerances_Feasibility          0.01
CPXPARAM_Parallel                                -1
CPXPARAM_DetTimeLimit                            75000
CPXPARAM_MIP_Tolerances_MIPGap                   0.01
CPXPARAM_MIP_Tolerances_Integrality              1.0000000000000001e-09
Warning:  No solution found from 1 MIP starts.
Retaining values of one MIP start for possible repair.
Tried aggregator 3 times.
MIP Presolve eliminated 88653 rows and 19721 columns.
MIP Presolve added 3354 rows and 0 columns.
MIP Presolve modified 23895 coefficients.
Aggregator did 12963 substitutions.
Reduced MIP has 24943 rows, 21285 columns, and 71098 nonzeros.
Reduced MIP has 8424 binaries, 0 generals, 0 SOSs, and 0 indicators.
Presolve time = 0.22 sec. (165.57 ticks)
Probing fixed 415 vars, tightened 2920 bounds.
Probing time = 3.17 sec. (892.82 ticks)
Tried aggregator 2 times.
MIP Presolve eliminated 939 rows and 832 columns.
MIP Presolve modified 2234 coefficients.
Aggregator did 45 substitutions.
Reduced MIP has 23959 rows, 20408 columns, and 68253 nonzeros.
Reduced MIP has 8008 binaries, 0 generals, 0 SOSs, and 0 indicators.
Presolve time = 0.13 sec. (54.27 ticks)
Probing time = 0.09 sec. (15.60 ticks)
Clique table members: 6568.
MIP emphasis: balance optimality and feasibility.
MIP search method: dynamic search.
Parallel mode: opportunistic, using up to 4 threads.
Root relaxation solution time = 0.50 sec. (229.54 ticks)

        Nodes                                         Cuts/
   Node  Left     Objective  IInf  Best Integer    Best Bound    ItCnt     Gap

      0     0   166768.6417  1889                 166768.6417     3790         
      0     0   162753.6716   707                   Cuts: 786     4225         
      0     0   161905.7284   585                   Cuts: 358     4419         
      0     0   161705.7175   560                   Cuts: 199     4525         
      0     0   161654.8231   524                   Cuts: 119     4598         
      0     0   161615.3006   488                    Cuts: 91     4648         
      0     0   161615.3006   476                    Cuts: 44     4669         
      0     0   161615.3006   476                    Cuts: 22     4682         
      0     0   161615.3006   467                    Cuts: 18     4690         
      0     0   161611.9983   461                    Cuts: 16     4697         
Repair heuristic found nothing.
      0     5   158012.8401   465                 157459.2029     4720         
Elapsed time = 38.53 sec. (13685.44 ticks, tree = 0.02 MB, solutions = 0)
     48    33   117030.7846   395                 157459.2029     6026         
    111    61    90576.9988   333                 157459.2029     8536         
    173    96    86239.9593   315                 157459.2029     8888         
    247   186    91064.6284   307                 157459.2029     9601         
    299   221    53717.5705   291                 157459.2029    10058         
    378   275    13135.7479   291                 157459.2029    12251         
    450   356    37378.6689   289                 157459.2029    13370         
    533   379   -20073.9446   230                 157459.2029    13476         
    619   471    14574.0218   189                 157459.2029    14210         
   1023   757    14574.0218   124                 157459.2029    15918         
Elapsed time = 44.89 sec. (16831.00 ticks, tree = 6.82 MB, solutions = 0)
   1397  1029  -116546.3135   193                 157459.2029    18551         
   1707  1150   -42711.0134   112                 157459.2029    19090         
   1859  1494    21230.0733   228                 156438.3909    22856         
   2195  1701    17481.0895   118                 156438.3909    25809         
   2565  1887    infeasible                       156438.3909    26696         
   2772  2127    10566.7297   135                 156438.3909    26947         
   2986  2370    17481.0895    91                 156438.3909    32347         
   3133  2579    18966.0268   247                 156438.3909    35926         
   3314  2817    infeasible                       155547.8904    44579         
   3495  2458    54898.3447   359                 155547.8904    34982         
Elapsed time = 63.55 sec. (26403.31 ticks, tree = 28.02 MB, solutions = 0)
   3803  2567    -1847.9981   287                 155547.8904    40281         
   3989  2858    26000.1996   298                 155547.8904    44614         
   3997  3342    48297.9294   230                  55606.2119    62255         
   4180   152    20998.5937   126                  50923.1464    64695         
   4390   350    10405.8822   112                  50923.1464    66709         
   4596   411    infeasible                        50923.1464    67777         
*  4812   743      integral     0    15257.0061    50923.1464    71124  233.77%
   5041   426    31269.5593    99    15257.0061    50923.1464    71529  233.77%
   5296   636    28093.7639   180    15257.0061    42737.5589    74316  180.12%
   5515   723    34784.5404   150    15257.0061    42737.5589    74823  180.12%
Elapsed time = 116.41 sec. (45941.14 ticks, tree = 6.25 MB, solutions = 1)
   5619   717    23263.8245   118    15257.0061    42737.5589    74978  180.12%
   5747  1028    25141.2108    44    22731.0330    42737.5589    78080   88.01%
   5889  1118    30714.2448   113    22731.0330    42737.5589    78583   88.01%
   6099  1221    33472.7482   150    22731.0330    42737.5589    79110   88.01%
   6192  1318    30963.7792   102    22731.0330    42737.5589    80085   88.01%
   6313  1415    31929.6841    92    22731.0330    42737.5589    80492   88.01%
   6407  1025        cutoff          22731.0330    42737.5589    78202   88.01%
   6437  1035        cutoff          22731.0330    42737.5589    78579   88.01%
   6513  1557    31681.3089   110    22731.0330    42737.5589    81380   88.01%
   6632  1650    30508.5441   110    22731.0330    42737.5589    81997   88.01%
Elapsed time = 134.39 sec. (55830.50 ticks, tree = 4.17 MB, solutions = 3)
   6742  1747        cutoff          22731.0330    42737.5589    82534   88.01%
   6762  1281        cutoff          22731.0330    42737.5589    80380   88.01%
   6804  1277    22731.1029    25    22731.0330    42737.5589    79721   88.01%
*  6812  1312      integral     0    33425.9115    42737.5589    80055   27.86%
   6908  1282        cutoff          33425.9115    42737.5589    79735   27.86%
   6914  1285        cutoff          33425.9115    42737.5589    79750   27.86%
   6921  1288        cutoff          33425.9115    42737.5589    79756   27.86%
   6929  1292        cutoff          33425.9115    42737.5589    79764   27.86%

GUB cover cuts applied:  3
Clique cuts applied:  8
Cover cuts applied:  21
Implied bound cuts applied:  18
Flow cuts applied:  400
Mixed integer rounding cuts applied:  52
Gomory fractional cuts applied:  67

Root node processing (before b&c):
  Real time             =   38.27 sec. (13643.85 ticks)
Parallel b&c, 4 threads:
  Real time             =  115.33 sec. (61376.65 ticks)
  Sync time (average)   =    0.68 sec.
  Wait time (average)   =    0.02 sec.
                          ------------
Total (root+branch&cut) =  153.59 sec. (75020.51 ticks)

Solution pool: 3 solutions saved.

MIP - Deterministic time limit exceeded, integer feasible:  Objective =  3.3425911472e+04
Current MIP best bound =  4.2737558889e+04 (gap = 9311.65, 27.86%)
Solution time =  153.59 sec.  Iterations = 93295  Nodes = 7003 (560)
Deterministic time = 75020.66 ticks  (488.43 ticks/sec)

CPLEX> Incumbent solution written to file 'C:\Users\llavi\Desktop\test919\logs\tmp3d3bo9ca.cplex.sol'.
CPLEX> Exporting results... 
